p cnf 18 141
-1 -13 0
-1 -2 0
-1 -3 0
-1 -4 0
-1 -5 0
-1 -6 0
-1 -7 0
-10 -11 0
-10 -12 0
-10 -16 0
-10 -4 0
-10 -7 0
-10 -8 0
-10 -9 0
-11 -10 0
-11 -12 0
-11 -17 0
-11 -5 0
-11 -7 0
-11 -8 0
-11 -9 0
-12 -10 0
-12 -11 0
-12 -14 0
-12 -18 0
-12 -2 0
-12 -6 0
-12 -7 0
-12 -8 0
-12 -9 0
-13 -1 0
-13 -14 0
-13 -15 0
-13 -16 0
-13 -17 0
-13 -18 0
-13 -7 0
-14 -12 0
-14 -13 0
-14 -15 0
-14 -16 0
-14 -17 0
-14 -18 0
-14 -2 0
-14 -6 0
-14 -8 0
-15 -13 0
-15 -14 0
-15 -16 0
-15 -17 0
-15 -18 0
-15 -3 0
-15 -9 0
-16 -10 0
-16 -13 0
-16 -14 0
-16 -15 0
-16 -17 0
-16 -18 0
-16 -4 0
-17 -11 0
-17 -13 0
-17 -14 0
-17 -15 0
-17 -16 0
-17 -18 0
-17 -5 0
-18 -12 0
-18 -13 0
-18 -14 0
-18 -15 0
-18 -16 0
-18 -17 0
-18 -2 0
-18 -6 0
-18 -8 0
-2 -1 0
-2 -12 0
-2 -14 0
-2 -18 0
-2 -3 0
-2 -4 0
-2 -5 0
-2 -6 0
-2 -8 0
-3 -1 0
-3 -15 0
-3 -2 0
-3 -4 0
-3 -5 0
-3 -6 0
-3 -9 0
-4 -1 0
-4 -10 0
-4 -16 0
-4 -2 0
-4 -3 0
-4 -5 0
-4 -6 0
-5 -1 0
-5 -11 0
-5 -17 0
-5 -2 0
-5 -3 0
-5 -4 0
-5 -6 0
-6 -1 0
-6 -12 0
-6 -14 0
-6 -18 0
-6 -2 0
-6 -3 0
-6 -4 0
-6 -5 0
-6 -8 0
-7 -1 0
-7 -10 0
-7 -11 0
-7 -12 0
-7 -13 0
-7 -8 0
-7 -9 0
-8 -10 0
-8 -11 0
-8 -12 0
-8 -14 0
-8 -18 0
-8 -2 0
-8 -6 0
-8 -7 0
-8 -9 0
-9 -10 0
-9 -11 0
-9 -12 0
-9 -15 0
-9 -3 0
-9 -7 0
-9 -8 0
1 2 3 4 5 6 0
13 14 15 16 17 18 0
7 8 9 10 11 12 0
